p tw 104 116
1 2
2 3
11 12
101 102
102 103
103 104
12 102
12 13
13 14
14 15
15 16
16 17
17 18
18 19
18 69
19 20
20 21
3 4
21 22
21 36
22 23
23 24
24 25
25 26
26 27
26 31
27 28
28 29
29 30
30 34
4 5
4 9
31 32
32 33
33 34
34 35
35 103
36 37
37 38
38 39
39 40
39 98
40 41
5 6
41 42
42 43
43 44
44 45
45 46
46 47
47 48
47 55
48 49
49 50
50 51
6 7
51 52
52 53
53 54
54 55
55 56
56 57
57 58
58 59
59 60
60 61
60 66
7 8
61 62
62 63
63 64
64 65
65 66
66 67
67 68
68 103
69 70
70 71
8 103
71 72
71 98
72 73
72 98
73 74
74 75
75 76
75 98
76 77
77 78
78 79
79 80
80 81
9 10
81 82
82 83
83 84
84 85
84 96
85 86
86 87
86 88
87 88
88 89
89 90
90 91
10 11
91 92
92 93
93 94
94 95
95 96
96 97
97 103
98 99
99 100
100 101
